
Gurobi 11.0.0 (win64) logging started Sat Jun 15 09:47:16 2024


Gurobi 11.0.0 (win64) logging started Sat Jun 15 10:45:56 2024


Gurobi 11.0.0 (win64) logging started Sat Jun 15 11:04:47 2024


Gurobi 11.0.0 (win64) logging started Tue Jul  2 10:39:08 2024

